1 0 1 1 0 0 1 1 0 1 
0 67 55 42 68 43 50 71 74 23 
67 0 58 29 77 56 36 47 50 37 
55 58 0 75 63 50 40 69 17 46 
42 29 75 0 75 61 53 37 39 30 
68 77 63 75 0 45 43 48 52 37 
43 56 50 61 45 0 70 67 40 59 
50 36 40 53 43 70 0 41 61 15 
71 47 69 37 48 67 41 0 30 63 
74 50 17 39 52 40 61 30 0 68 
23 37 46 30 37 59 15 63 68 0 
2 50
1P 6B 5B 3P 9B 8P 4P 2B 7P 10P = 338